p cnf 20 20
-1 17 -18 0 
-1 18 -17 0 
-2 6 18 -17 0 
-2 6 17 -18 0 
-3 18 -17 0 
-3 17 -18 0 
-2 6 19 0 
-4 20 0 
-5 20 0 
-3 18 -17 0 
-3 17 -18 0 
-6 2 -7 -8 -9 18 -17 0 
-6 2 -7 -10 18 -17 0 
-6 2 -7 -8 -9 17 -18 0 
-11 20 0 
-12 20 0 
-13 20 0 
-14 20 0 
-15 20 0 
-16 20 0 
